SCIP Status        : solving was interrupted [time limit reached]
Total Time         :    3600.05
  solving          :    3600.04
  presolving       :       0.01 (included in solving)
  reading          :       0.00
  copying          :       0.40 (137 #copies) (minimal 0.00, maximal 0.00, average 0.00)
Original Problem   :
  Problem name     : sfacloc1_2_95
  Variables        : 171 (9 binary, 0 integer, 0 implicit integer, 162 continuous)
  Constraints      : 208 initial, 208 maximal
  Objective        : minimize, 15 non-zeros (abs.min = 1, abs.max = 1)
Presolved Problem  :
  Problem name     : t_sfacloc1_2_95
  Variables        : 223 (9 binary, 0 integer, 0 implicit integer, 214 continuous)
  Constraints      : 154 initial, 154 maximal
  Objective        : minimize, 15 non-zeros (abs.min = 1, abs.max = 1)
  Nonzeros         : 390 constraint, 20 clique table
Presolvers         :   ExecTime  SetupTime  Calls  FixedVars   AggrVars   ChgTypes  ChgBounds   AddHoles    DelCons    AddCons   ChgSides   ChgCoefs
  boundshift       :       0.00       0.00      0          0          0          0          0          0          0          0          0          0
  convertinttobin  :       0.00       0.00      0          0          0          0          0          0          0          0          0          0
  domcol           :       0.00       0.00      1          0          0          0          0          0          0          0          0          0
  dualagg          :       0.00       0.00      0          0          0          0          0          0          0          0          0          0
  dualcomp         :       0.00       0.00      1          0          0          0          0          0          0          0          0          0
  dualinfer        :       0.00       0.00      0          0          0          0          0          0          0          0          0          0
  dualsparsify     :       0.00       0.00      1          0          0          0          0          0          0          0          0          0
  gateextraction   :       0.00       0.00      0          0          0          0          0          0          0          0          0          0
  implics          :       0.00       0.00      3          0          0          0          0          0          0          0          0          0
  inttobinary      :       0.00       0.00      0          0          0          0          0          0          0          0          0          0
  qpkktref         :       0.00       0.00      0          0          0          0          0          0          0          0          0          0
  redvub           :       0.00       0.00      0          0          0          0          0          0          0          0          0          0
  sparsify         :       0.00       0.00      1          0          0          0          0          0          0          0          0          0
  stuffing         :       0.00       0.00      0          0          0          0          0          0          0          0          0          0
  trivial          :       0.00       0.00      4          0          0          0          0          0          0          0          0          0
  tworowbnd        :       0.00       0.00      0          0          0          0          0          0          0          0          0          0
  dualfix          :       0.00       0.00      4          0          0          0          0          0          0          0          0          0
  genvbounds       :       0.00       0.00      0          0          0          0          0          0          0          0          0          0
  probing          :       0.00       0.00      1          0          0          0          0          0          0          0          0          0
  pseudoobj        :       0.00       0.00      0          0          0          0          0          0          0          0          0          0
  symmetry         :       0.00       0.00      1          0          0          0          0          0          0          0          0          0
  vbounds          :       0.00       0.00      1          0          0          0          0          0          0          0          0          0
  setppc           :       0.00       0.00      3          0          0          0          0          0          0          0          0          0
  linear           :       0.00       0.00      7          0         53          0          8          0         54          0          0          0
  nonlinear        :       0.00       0.00      8          0          0          0          0          0          0          0          0          0
  benders          :       0.00       0.00      0          0          0          0          0          0          0          0          0          0
  components       :       0.00       0.00      1          0          0          0          0          0          0          0          0          0
  root node        :          -          -      -          0          -          -         34          -          -          -          -          -
Constraints        :     Number  MaxNumber  #Separate #Propagate    #EnfoLP    #EnfoRelax  #EnfoPS    #Check   #ResProp    Cutoffs    DomReds       Cuts    Applied      Conss   Children
  benderslp        :          0          0          0          0    1950459          0          0    1899659          0          0          0          0          0          0          0
  integral         :          0          0          0          0    1950459          0          0    1899659          0          0          0          0          0          0      31052
  setppc           :         10         10         15       1045          0          0          0    1899655          0          0        200          0          0          0          0
  linear           :        129        129         15    3226084          0          0          0    1899654          0          0    1418882          0          0          0          0
  nonlinear        :         15         15    4794594    3226084    1934933          0          0    1899316          0          0    3033841   11840723   10639217          0    3779522
  benders          :          0          0          0          0          0          0          0         33          0          0          0          0          0          0          0
  countsols        :          0          0          0          0          0          0          0         33          0          0          0          0          0          0          0
  components       :          0          0          0          0          0          0          0          0          0          0          0          0          0          0          0
Constraint Timings :  TotalTime  SetupTime   Separate  Propagate     EnfoLP     EnfoPS     EnfoRelax   Check    ResProp    SB-Prop
  benderslp        :       0.44       0.00       0.00       0.00       0.36       0.00       0.00       0.08       0.00       0.00
  integral         :       0.69       0.00       0.00       0.00       0.55       0.00       0.00       0.14       0.00       0.00
  setppc           :       0.38       0.00       0.00       0.00       0.00       0.00       0.00       0.38       0.00       0.00
  linear           :       9.48       0.00       0.00       7.15       0.00       0.00       0.00       2.33       0.00       0.00
  nonlinear        :    1007.90       0.00     603.40      67.29     299.89       0.00       0.00      37.31       0.00       0.01
  benders          :       0.00       0.00       0.00       0.00       0.00       0.00       0.00       0.00       0.00       0.00
  countsols        :       0.00       0.00       0.00       0.00       0.00       0.00       0.00       0.00       0.00       0.00
  components       :       0.38       0.00       0.00       0.38       0.00       0.00       0.00       0.00       0.00       0.00
Propagators        : #Propagate   #ResProp    Cutoffs    DomReds
  dualfix          :          4          0          0          0
  genvbounds       :     604568          0          0     393091
  nlobbt           :          0          0          0          0
  obbt             :          3          0          0          3
  probing          :          0          0          0          0
  pseudoobj        :    5173866          0          0       3536
  redcost          :     159879          0          0          0
  rootredcost      :          4          0          0          0
  symmetry         :          0          0          0          0
  vbounds          :     390686          0          0          0
Propagator Timings :  TotalTime  SetupTime   Presolve  Propagate    ResProp    SB-Prop
  dualfix          :       0.00       0.00       0.00       0.00       0.00       0.00
  genvbounds       :       4.20       0.00       0.00       4.20       0.00       0.00
  nlobbt           :       0.00       0.00       0.00       0.00       0.00       0.00
  obbt             :       0.13       0.00       0.00       0.13       0.00       0.00
  probing          :       0.00       0.00       0.00       0.00       0.00       0.00
  pseudoobj        :       6.27       0.00       0.00       6.27       0.00       0.00
  redcost          :       2.44       0.00       0.00       2.44       0.00       0.00
  rootredcost      :       1.19       0.00       0.00       1.19       0.00       0.00
  symmetry         :       0.45       0.00       0.00       0.45       0.00       0.00
  vbounds          :       1.22       0.00       0.00       1.22       0.00       0.00
Conflict Analysis  :       Time      Calls    Success    DomReds  Conflicts   Literals    Reconvs ReconvLits   Dualrays   Nonzeros   LP Iters   (pool size: [--,--])
  propagation      :       0.00          0          0          -          0        0.0          0        0.0          -          -          -
  infeasible LP    :       0.00          0          0          -          0        0.0          0        0.0          0        0.0          0
  bound exceed. LP :       6.75      69345          0          -          0        0.0          0        0.0          0        0.0          0
  strong branching :       0.00          0          0          -          0        0.0          0        0.0          -          -          0
  pseudo solution  :       0.00          0          0          -          0        0.0          0        0.0          -          -          -
  applied globally :       0.00          -          -          0          0        0.0          -          -          0          -          -
  applied locally  :          -          -          -          0          0        0.0          -          -          0          -          -
Separators         :   ExecTime  SetupTime      Calls  RootCalls    Cutoffs    DomReds  FoundCuts ViaPoolAdd  DirectAdd    Applied ViaPoolApp  DirectApp      Conss
  cut pool         :       0.10          -     507468         27          -          -        114        152          -          -          -          -          -    (maximal pool size:         24)
  aggregation      :       0.09       0.00        368         14          0          0         95        108          9         69         65          4          0
  > cmir           :          -          -          -          -          -          -          -         94          7         55         52          3          -
  > flowcover      :          -          -          -          -          -          -          -         14          2         14         13          1          -
  > knapsackcover  :          -          -          -          -          -          -          -          0          0          0          0          0          -
  cgmip            :       0.00       0.00          0          0          0          0          0          0          0          0          0          0          0
  clique           :       0.00       0.00         14         14          0          0          0          0          0          0          0          0          0
  closecuts        :       0.00       0.00          0          0          0          0          0          0          0          0          0          0          0
  convexproj       :       0.00       0.00          0          0          0          0          0          0          0          0          0          0          0
  disjunctive      :       0.00       0.00          0          0          0          0          0          0          0          0          0          0          0
  eccuts           :       0.00       0.00          0          0          0          0          0          0          0          0          0          0          0
  gauge            :       0.00       0.00          0          0          0          0          0          0          0          0          0          0          0
  gomory           :       0.02       0.00        362         10          0          0         81         44         53         49         32         17          0
  > gomorymi       :          -          -          -          -          -          -          -         44         53         49         32         17          -
  > strongcg       :          -          -          -          -          -          -          -          0          0          0          0          0          -
  impliedbounds    :       0.00       0.00        368         14          0          0          0          0          0          0          0          0          0
  interminor       :       0.00       0.00          0          0          0          0          0          0          0          0          0          0          0
  intobj           :       0.00       0.00          0          0          0          0          0          0          0          0          0          0          0
  mcf              :       0.00       0.00          1          1          0          0          0          0          0          0          0          0          0
  minor            :       0.00       0.00          0          0          0          0          0          0          0          0          0          0          0
  mixing           :       0.01       0.00       3068         15          0          0          0          0          0          0          0          0          0
  oddcycle         :       0.00       0.00          0          0          0          0          0          0          0          0          0          0          0
  rapidlearning    :       0.12       0.00          0          0          0          0          0          0          0          0          0          0          0
  rlt              :       0.00       0.00         10         10          0          0          0          0          0          0          0          0          0
  zerohalf         :       0.01       0.00        366         14          0          0          0          0          0          0          0          0          0
Cutselectors       :   ExecTime  SetupTime      Calls  RootCalls   Selected     Forced   Filtered  RootSelec   RootForc   RootFilt 
  hybrid           :       5.28       0.00    3097415         13   10556983          0    1201593         98          0         28
Pricers            :   ExecTime  SetupTime      Calls       Vars
  problem variables:       0.00          -          0          0
Branching Rules    :   ExecTime  SetupTime   BranchLP  BranchExt   BranchPS    Cutoffs    DomReds       Cuts      Conss   Children
  allfullstrong    :       0.00       0.00          0          0          0          0          0          0          0          0
  cloud            :       0.00       0.00          0          0          0          0          0          0          0          0
  distribution     :       0.00       0.00          0          0          0          0          0          0          0          0
  fullstrong       :       0.00       0.00          0          0          0          0          0          0          0          0
  inference        :       0.00       0.00          0          0          0          0          0          0          0          0
  leastinf         :       0.00       0.00          0          0          0          0          0          0          0          0
  lookahead        :       0.00       0.00          0          0          0          0          0          0          0          0
  mostinf          :       0.00       0.00          0          0          0          0          0          0          0          0
  multaggr         :       0.00       0.00          0          0          0          0          0          0          0          0
  nodereopt        :       0.00       0.00          0          0          0          0          0          0          0          0
  pscost           :       0.00       0.00          0          0          0          0          0          0          0          0
  random           :       0.00       0.00          0          0          0          0          0          0          0          0
  relpscost        :       0.17       0.00      15526          0          0          0          0          0          0      31052
  vanillafullstrong:       0.00       0.00          0          0          0          0          0          0          0          0
Primal Heuristics  :   ExecTime  SetupTime      Calls      Found       Best
  LP solutions     :       0.00          -          -          0          0
  relax solutions  :       0.00          -          -          0          0
  pseudo solutions :       0.00          -          -          0          0
  strong branching :       0.01          -          -          0          0
  actconsdiving    :       0.00       0.00          0          0          0
  adaptivediving   :      18.37       0.00     248834          0          0
  alns             :       0.77       0.00         47          0          0
  bound            :       0.00       0.00          0          0          0
  clique           :       0.01       0.00          1          0          0
  coefdiving       :       0.00       0.00          0          0          0
  completesol      :       0.00       0.00          0          0          0
  conflictdiving   :       0.23       0.00          0          0          0
  crossover        :      42.44       0.00          6          2          0
  dins             :       0.00       0.00          0          0          0
  distributiondivin:       4.42       0.00        463          0          0
  dps              :       0.00       0.00          0          0          0
  dualval          :       0.00       0.00          0          0          0
  farkasdiving     :       0.08       0.00          0          0          0
  feaspump         :       0.07       0.00          1          0          0
  fixandinfer      :       0.00       0.00          0          0          0
  fracdiving       :       8.73       0.00     171653          0          0
  gins             :       6.57       0.00         14          1          0
  guideddiving     :       9.12       0.00     185250          0          0
  indicator        :       0.83       0.00          0          0          0
  indicatordiving  :       0.00       0.00          0          0          0
  intdiving        :       0.00       0.00          0          0          0
  intshifting      :       0.07       0.00         21          0          0
  linesearchdiving :       9.59       0.00     175212          0          0
  localbranching   :       0.00       0.00          0          0          0
  locks            :       0.00       0.00          1          0          0
  lpface           :       0.61       0.00          0          0          0
  mpec             :       0.34       0.00          1          1          1
  multistart       :       0.00       0.00          0          0          0
  mutation         :       0.00       0.00          0          0          0
  nlpdiving        :       0.48       0.00          9          6          0
  objpscostdiving  :       0.07       0.00         32          0          0
  octane           :       0.00       0.00          0          0          0
  ofins            :       0.37       0.00          0          0          0
  oneopt           :       0.58       0.00          6          0          0
  padm             :       0.00       0.00          0          0          0
  proximity        :       0.00       0.00          0          0          0
  pscostdiving     :       0.52       0.00        470          0          0
  randrounding     :       0.12       0.00        538          0          0
  rens             :       0.00       0.00          1          0          0
  reoptsols        :       0.00       0.00          0          0          0
  repair           :       0.00       0.00          0          0          0
  rins             :      29.79       0.00         69          9          0
  rootsoldiving    :       0.09       0.00         31          0          0
  rounding         :       1.19       0.00       2085          0          0
  shiftandpropagate:       0.00       0.00          1          0          0
  shifting         :       0.13       0.00        372          0          0
  simplerounding   :       1.00       0.00          0          0          0
  subnlp           :      24.60       0.00        301          4          4
  trivial          :       0.00       0.00          2          0          0
  trivialnegation  :       0.00       0.00          0          0          0
  trustregion      :       0.00       0.00          0          0          0
  trysol           :       0.68       0.00          1          1          1
  twoopt           :       0.00       0.00          0          0          0
  undercover       :       0.00       0.00          1          0          0
  vbounds          :       0.00       0.00          0          0          0
  veclendiving     :       9.42       0.00     166796          0          0
  zeroobj          :       0.00       0.00          0          0          0
  zirounding       :       0.44       0.00       1000          0          0
  other solutions  :          -          -          -          0          -
Expressions        :   #IntEval  IntEvalTi   #RevProp  RevPropTi    DomReds    Cutoffs  #Estimate  EstimTime  Branching  #Simplify SimplifyTi Simplified
  pow              :          0       0.00          0       0.00          0          0          0       0.00          0          0       0.00          0
  prod             :   17956198       4.63         96       0.00          0          0  402860054     108.47  115837577        178       0.00         88
  sum              :        135       0.00          0       0.00          0          0         15       0.00          0        214       0.00         96
  var              :   16039360       1.10          0       0.00          0          0          0       0.00          0        331       0.00         52
  varidx           :          0       0.00          0       0.00          0          0          0       0.00          0          0       0.00          0
Nlhdlrs            :    Detects  DetectAll DetectTime   #IntEval  IntEvalTi   #RevProp  RevPropTi    DomReds    Cutoffs   #Enforce   EnfoTime       Cuts  Branching
  soc              :          0          0       0.00          0       0.00          0       0.00          0          0          0       0.00          0          0
  convex           :          0          0       0.00          0       0.00          0       0.00          0          0          0       0.00          0          0
  concave          :          0          0       0.00          0       0.00          0       0.00          0          0          0       0.00          0          0
  signomial        :          0          0       0.00          0       0.00          0       0.00          0          0          0       0.00          0          0
  quotient         :          0          0       0.00          0       0.00          0       0.00          0          0          0       0.00          0          0
  quadratic        :         15        135       0.00    6879802      16.36    6879727      20.54     108529          0          0       0.00          0          0
  default          :        189       1117       0.00   17956108       5.74        348       0.00          0          0  402859979     470.28   11840723          0
  bilinear         :         44         44       0.00          0       0.00          0       0.00          0          0  252826029      12.25          0          0
  perspective      :          0          0       0.00          0       0.00          0       0.00          0          0          0       0.00          0          0
LP                 :       Time      Calls Iterations  Iter/call   Iter/sec  Time-0-It Calls-0-It    ItLimit
  primal LP        :     383.20    1181657          8       8.00       0.02     383.10    1181656
  dual LP          :    1458.40    5125375   21119934       5.10   14481.62     225.63     987656
  lex dual LP      :       0.00          0          0       0.00          -
  barrier LP       :       0.00          0          0       0.00          -       0.00          0
  resolve instable :       0.00          0          0       0.00          -
  diving/probing LP:       0.80       1939      11286       5.82   14149.36
  strong branching :       0.06        117       1506      12.87   24875.70          -          -          5
    (at root node) :          -          2         26      13.00          -
  conflict analysis:       0.00          0          0       0.00          -
NLP relaxation     :
  solve time       :       0.38 (9 calls)
  convexity        :  nonconvex (139 linear rows, 0 convex ineq., 0 nonconvex ineq., 15 nonlinear eq. or two-sided ineq.)
NLP Solvers        :  #Problems  ProblemTi    #Solves  SolveTime      #Iter  Time/Iter      #Okay #TimeLimit #IterLimit #LObjLimit #Interrupt  #NumError #EvalError  #OutOfMem #LicenseEr #OtherTerm   #GlobOpt    #LocOpt  #Feasible #LocInfeas #GlobInfea #Unbounded   #Unknown
  ipopt            :        304       3.54        319      21.67       8729       0.00        309          0         10          0          0          0          0          0          0          0          0        304          7          0          0          0          8
B&B Tree           :
  number of runs   :          1
  nodes            :    1982791 (1905287 internal, 77504 leaves)
  feasible leaves  :          0
  infeas. leaves   :          0
  objective leaves :      77503
  nodes (total)    :    1982791 (1905287 internal, 77504 leaves)
  nodes left       :    1827785
  max depth        :         41
  max depth (total):         41
  backtracks       :     479334 (24.2%)
  early backtracks :          0 (0.0%)
  nodes exc. ref.  :          0 (0.0%)
  delayed cutoffs  :          0
  repropagations   :          1 (0 domain reductions, 0 cutoffs)
  avg switch length:      10.96
  switching time   :     471.27
Root Node          :
  First LP value   : +0.00000000000000e+00
  First LP Iters   :         51 (43257.00 Iter/sec)
  First LP Time    :       0.00
  Final Dual Bound : +4.25447883625393e-02
  Final Root Iters :        331
  Root LP Estimate : +1.42759597689709e+01
Solution           :
  Solutions found  :         24 (6 improvements)
  First Solution   : +8.39330818279375e+01   (in run 1, after 1 nodes, 0.04 seconds, depth 4, found by <trysol>)
  Gap First Sol.   :   infinite
  Gap Last Sol.    :      28.27 %
  Primal Bound     : +1.88500700282831e+01   (in run 1, after 1778768 nodes, 3273.75 seconds, depth 27, found by <adaptivediving>)
  Dual Bound       : +1.47819531725280e+01
  Gap              :      27.52 %
Integrals          :      Total       Avg%
  primal-dual      :  102008.92      28.34
  primal-ref       :          -          - (not evaluated)
  dual-ref         :          -          - (not evaluated)
